30172
1 0 1 1 1 1 1 1 1 1 1 1 1 1 1 1 1 1 1 0 0 0 0 1 0 0 0 0 1 1 
18 6 2 18 2 12 15 28 18 28 4 28 13 13 28 18 3 10 16 0 18 16 5 0 10 18 18 14 29 2 6 4 4 16 28 6 8 8 16 16 18 9 6 4 8 4 13 2 14 14 0 16 2 16 8 6 11 9 18 7 29 0 7 8 13 11 5 14 28 12 18 12 6 9 23 23 10 23 8 16 10 0 9 7 29 13 6 5 18 7 28 6 7 11 2 3 11 6 0 28 28 15 12 18 4 0 4 16 16 3 14 4 18 12 12 8 28 7 17 8 9 11 17 6 9 16 2 11 4 17 28 16 11 10 23 9 3 3 28 10 12 16 11 11 11 5 16 15 11 7 0 17 23 0 8 11 2 15 3 13 13 0 10 2 5 28 5 4 3 15 5 8 28 14 4 2 0 10 29 10 5 15 0 6 12 8 11 23 17 2 5 15 6 29 7 12 7 15 10 6 
